DIMACS_lns/graph-1000-797.col
p edge 1000 1804
e 1 952
e 1 661
e 1 804
e 1 108
e 1 603
e 1 698
e 1 683
e 2 202
e 2 389
e 2 847
e 2 68
e 5 727
e 5 635
e 5 160
e 5 827
e 5 59
e 6 443
e 6 399
e 6 437
e 7 724
e 7 933
e 7 785
e 8 300
e 8 648
e 8 115
e 9 818
e 9 591
e 9 830
e 9 975
e 9 522
e 10 78
e 10 720
e 10 547
e 11 586
e 11 145
e 11 108
e 11 357
e 11 444
e 11 153
e 12 390
e 12 469
e 12 279
e 14 821
e 14 832
e 14 45
e 15 462
e 15 163
e 15 501
e 15 198
e 15 280
e 15 476
e 16 582
e 16 32
e 16 729
e 16 790
e 16 169
e 17 671
e 17 481
e 17 747
e 17 650
e 17 435
e 17 684
e 18 743
e 18 806
e 18 987
e 18 587
e 19 188
e 19 354
e 19 793
e 19 136
e 19 635
e 19 907
e 22 77
e 22 214
e 22 916
e 23 789
e 23 352
e 23 421
e 23 378
e 24 196
e 24 381
e 24 98
e 24 38
e 24 303
e 26 720
e 26 879
e 26 736
e 27 423
e 27 826
e 27 510
e 27 521
e 27 79
e 28 830
e 28 192
e 28 548
e 30 499
e 30 542
e 30 777
e 30 748
e 30 212
e 31 422
e 31 858
e 31 90
e 31 885
e 32 692
e 32 601
e 32 610
e 32 388
e 32 944
e 33 211
e 33 639
e 33 195
e 33 783
e 33 243
e 33 656
e 33 316
e 34 519
e 34 80
e 34 969
e 34 219
e 34 294
e 38 788
e 38 508
e 38 626
e 38 656
e 38 572
e 39 406
e 39 410
e 39 694
e 39 904
e 41 459
e 41 574
e 41 668
e 42 116
e 42 405
e 42 404
e 42 280
e 42 890
e 43 839
e 43 628
e 43 446
e 43 659
e 43 96
e 43 450
e 45 159
e 45 516
e 48 93
e 48 389
e 48 891
e 48 985
e 48 733
e 50 630
e 50 877
e 50 716
e 50 916
e 50 809
e 51 288
e 51 696
e 51 276
e 51 284
e 51 495
e 51 956
e 51 604
e 51 796
e 51 318
e 52 982
e 52 867
e 52 799
e 52 706
e 52 820
e 52 203
e 53 183
e 53 124
e 53 763
e 53 518
e 55 514
e 55 498
e 55 627
e 56 877
e 56 149
e 56 437
e 56 890
e 56 599
e 56 207
e 57 672
e 57 813
e 57 559
e 57 379
e 57 812
e 58 763
e 58 159
e 58 94
e 59 858
e 59 120
e 59 765
e 59 357
e 59 950
e 60 510
e 60 382
e 60 753
e 61 564
e 61 573
e 61 525
e 61 75
e 63 438
e 63 287
e 63 913
e 63 817
e 64 481
e 64 269
e 64 747
e 64 580
e 64 581
e 64 87
e 64 766
e 66 75
e 66 622
e 66 520
e 66 331
e 67 755
e 67 512
e 67 770
e 67 289
e 67 711
e 68 731
e 68 923
e 68 766
e 68 949
e 68 818
e 70 482
e 70 585
e 70 183
e 70 704
e 70 200
e 72 490
e 72 348
e 72 767
e 73 975
e 73 856
e 73 560
e 73 558
e 74 399
e 74 861
e 74 217
e 74 546
e 75 812
e 75 942
e 75 663
e 75 280
e 76 131
e 76 537
e 76 681
e 76 885
e 76 526
e 76 525
e 77 235
e 77 280
e 77 927
e 77 509
e 78 472
e 78 512
e 78 400
e 79 727
e 79 113
e 79 729
e 79 585
e 79 948
e 80 791
e 80 130
e 80 733
e 80 816
e 82 935
e 82 912
e 82 492
e 83 658
e 83 919
e 83 215
e 83 320
e 83 609
e 85 868
e 85 916
e 85 152
e 86 232
e 86 813
e 86 833
e 87 658
e 87 512
e 87 991
e 87 400
e 87 532
e 87 474
e 87 200
e 87 96
e 87 710
e 88 464
e 88 858
e 88 328
e 88 749
e 88 258
e 90 670
e 90 476
e 90 116
e 93 821
e 93 431
e 93 318
e 94 808
e 94 881
e 94 487
e 95 210
e 95 671
e 95 231
e 95 489
e 96 587
e 96 625
e 96 104
e 96 676
e 96 275
e 96 653
e 98 129
e 98 776
e 98 978
e 98 535
e 101 671
e 101 795
e 101 464
e 101 652
e 102 378
e 102 749
e 102 368
e 104 468
e 104 894
e 104 179
e 104 416
e 104 555
e 105 110
e 105 736
e 105 734
e 105 462
e 105 211
e 105 716
e 106 740
e 106 401
e 106 964
e 106 916
e 107 812
e 107 322
e 107 734
e 108 155
e 108 336
e 108 797
e 108 675
e 109 943
e 109 220
e 109 282
e 110 410
e 110 689
e 110 750
e 112 802
e 112 788
e 112 906
e 113 114
e 113 193
e 113 879
e 113 646
e 113 686
e 114 272
e 114 622
e 114 138
e 115 499
e 115 247
e 115 164
e 116 510
e 116 994
e 116 597
e 118 391
e 118 719
e 118 742
e 118 210
e 119 933
e 119 120
e 119 625
e 119 480
e 119 223
e 119 265
e 120 412
e 120 669
e 122 735
e 122 328
e 122 891
e 123 240
e 123 953
e 123 525
e 124 1000
e 124 584
e 124 129
e 124 924
e 126 596
e 126 978
e 126 381
e 126 641
e 126 828
e 127 359
e 127 342
e 127 703
e 127 611
e 128 356
e 128 337
e 128 214
e 128 202
e 128 797
e 128 193
e 128 404
e 129 389
e 129 665
e 129 377
e 129 223
e 130 571
e 130 522
e 131 884
e 131 544
e 131 388
e 133 610
e 133 969
e 133 767
e 135 393
e 135 295
e 135 927
e 135 401
e 135 931
e 136 766
e 136 973
e 138 492
e 138 249
e 138 453
e 138 907
e 140 444
e 140 659
e 140 192
e 141 689
e 141 796
e 141 789
e 141 747
e 141 183
e 142 934
e 142 469
e 142 724
e 144 576
e 144 972
e 144 894
e 145 518
e 145 673
e 145 978
e 145 204
e 146 490
e 146 149
e 146 222
e 147 873
e 147 280
e 147 962
e 147 679
e 148 652
e 148 722
e 148 902
e 149 495
e 149 707
e 149 446
e 152 757
e 152 966
e 152 422
e 153 897
e 153 390
e 153 739
e 154 581
e 154 191
e 154 667
e 154 336
e 155 202
e 155 861
e 155 183
e 156 513
e 156 697
e 156 622
e 156 442
e 156 546
e 156 595
e 156 368
e 157 724
e 157 490
e 157 518
e 159 698
e 160 252
e 160 472
e 160 906
e 160 754
e 160 627
e 161 956
e 161 913
e 161 504
e 162 519
e 162 703
e 162 768
e 163 274
e 163 895
e 163 628
e 163 470
e 163 669
e 163 433
e 164 749
e 164 668
e 164 458
e 164 235
e 164 176
e 166 528
e 166 951
e 166 698
e 166 173
e 166 908
e 167 385
e 167 972
e 167 400
e 167 367
e 169 443
e 169 732
e 169 820
e 169 180
e 169 952
e 170 299
e 170 934
e 170 433
e 170 874
e 171 1000
e 171 999
e 171 477
e 171 335
e 171 505
e 172 925
e 172 237
e 172 825
e 172 669
e 172 399
e 173 468
e 173 544
e 175 462
e 175 474
e 175 790
e 176 587
e 176 945
e 176 820
e 176 248
e 177 336
e 177 289
e 177 881
e 177 904
e 178 666
e 178 451
e 178 722
e 178 479
e 178 382
e 178 779
e 179 346
e 179 573
e 179 985
e 179 618
e 179 537
e 180 331
e 180 703
e 180 604
e 181 187
e 181 592
e 181 428
e 182 521
e 182 462
e 182 359
e 182 379
e 182 540
e 183 620
e 183 684
e 183 227
e 184 231
e 184 552
e 184 876
e 184 853
e 184 369
e 185 504
e 185 302
e 185 443
e 185 421
e 185 603
e 186 783
e 186 509
e 186 892
e 187 891
e 187 706
e 187 801
e 187 705
e 187 631
e 187 453
e 187 919
e 187 290
e 188 627
e 188 808
e 188 589
e 191 694
e 191 825
e 191 830
e 191 340
e 192 210
e 193 814
e 193 365
e 193 306
e 193 945
e 194 517
e 194 904
e 194 282
e 195 885
e 195 845
e 195 309
e 195 452
e 195 374
e 195 630
e 195 264
e 196 271
e 196 596
e 196 783
e 196 536
e 197 278
e 197 780
e 197 199
e 197 832
e 198 627
e 198 987
e 198 604
e 198 391
e 198 822
e 198 335
e 199 617
e 199 901
e 199 588
e 199 359
e 200 299
e 200 749
e 200 712
e 200 566
e 202 738
e 202 807
e 202 291
e 203 275
e 203 732
e 203 783
e 204 328
e 204 368
e 204 398
e 204 881
e 207 715
e 207 916
e 207 266
e 207 332
e 209 931
e 209 262
e 209 330
e 209 713
e 209 495
e 210 374
e 210 382
e 211 933
e 212 334
e 212 380
e 212 659
e 212 471
e 213 951
e 213 269
e 213 909
e 213 883
e 214 463
e 214 586
e 214 722
e 214 573
e 214 796
e 215 326
e 215 539
e 217 222
e 217 600
e 217 816
e 219 532
e 219 431
e 219 827
e 219 869
e 219 366
e 219 906
e 219 705
e 220 635
e 220 892
e 220 325
e 220 908
e 221 547
e 221 611
e 221 345
e 221 593
e 222 924
e 222 357
e 222 573
e 223 599
e 223 926
e 223 822
e 223 824
e 225 388
e 225 561
e 225 240
e 225 353
e 226 994
e 226 931
e 226 412
e 226 962
e 226 409
e 227 870
e 227 695
e 228 855
e 228 408
e 228 942
e 230 406
e 230 320
e 230 663
e 231 301
e 231 804
e 232 576
e 232 428
e 234 378
e 234 552
e 234 591
e 234 717
e 234 435
e 235 929
e 235 486
e 235 365
e 235 807
e 236 589
e 236 322
e 236 521
e 237 801
e 237 987
e 237 557
e 238 829
e 238 369
e 238 665
e 238 281
e 238 599
e 240 607
e 240 676
e 240 813
e 240 884
e 240 742
e 243 588
e 243 751
e 243 537
e 243 977
e 243 884
e 246 610
e 246 931
e 246 464
e 247 451
e 247 284
e 247 651
e 247 898
e 247 692
e 247 511
e 247 698
e 247 776
e 248 642
e 248 883
e 248 675
e 248 641
e 248 441
e 249 935
e 249 313
e 249 504
e 249 567
e 249 374
e 250 729
e 250 909
e 250 629
e 251 891
e 251 396
e 251 459
e 251 927
e 251 718
e 252 545
e 252 846
e 252 679
e 257 375
e 257 709
e 257 603
e 257 482
e 257 880
e 258 842
e 258 875
e 262 405
e 262 389
e 262 853
e 263 876
e 263 689
e 263 367
e 263 919
e 264 695
e 264 677
e 264 318
e 265 643
e 265 910
e 265 656
e 265 441
e 265 708
e 265 480
e 266 823
e 266 519
e 268 492
e 268 518
e 268 452
e 268 380
e 268 271
e 269 535
e 269 692
e 271 290
e 271 457
e 272 525
e 272 529
e 272 879
e 272 787
e 272 973
e 272 948
e 273 287
e 273 288
e 273 627
e 274 869
e 274 471
e 275 706
e 275 785
e 275 400
e 275 878
e 276 300
e 276 753
e 276 500
e 276 438
e 278 561
e 278 796
e 279 529
e 279 690
e 279 716
e 279 573
e 279 299
e 279 739
e 279 798
e 281 436
e 281 489
e 282 671
e 282 740
e 282 829
e 282 603
e 283 878
e 283 467
e 283 422
e 283 331
e 284 904
e 284 385
e 284 445
e 284 1000
e 287 684
e 287 493
e 288 389
e 289 904
e 289 812
e 290 768
e 290 1000
e 291 620
e 291 769
e 294 830
e 294 680
e 294 843
e 295 616
e 295 355
e 296 717
e 296 595
e 296 853
e 298 1000
e 298 348
e 298 604
e 298 581
e 298 374
e 298 871
e 298 497
e 298 707
e 298 733
e 298 325
e 299 787
e 299 357
e 299 408
e 300 497
e 300 861
e 301 925
e 301 401
e 302 313
e 302 566
e 302 444
e 303 893
e 303 943
e 303 872
e 303 331
e 303 585
e 306 334
e 306 852
e 306 448
e 306 422
e 306 366
e 306 485
e 306 856
e 307 713
e 307 351
e 307 899
e 309 392
e 309 502
e 309 468
e 309 774
e 310 618
e 310 395
e 310 929
e 310 697
e 311 338
e 311 811
e 311 936
e 312 925
e 312 763
e 312 731
e 312 638
e 312 667
e 312 389
e 313 645
e 313 366
e 313 929
e 313 751
e 316 614
e 316 624
e 318 561
e 320 768
e 320 480
e 320 631
e 320 413
e 322 771
e 322 566
e 323 858
e 323 733
e 323 602
e 325 436
e 326 644
e 326 609
e 326 820
e 328 774
e 328 954
e 328 626
e 330 586
e 330 396
e 330 464
e 330 512
e 330 399
e 330 592
e 330 502
e 331 646
e 331 736
e 332 349
e 332 474
e 332 630
e 334 395
e 334 783
e 335 722
e 336 453
e 336 883
e 336 403
e 337 430
e 337 935
e 337 717
e 338 423
e 338 743
e 338 614
e 340 908
e 340 914
e 340 696
e 340 906
e 342 540
e 342 487
e 345 957
e 345 409
e 345 903
e 346 785
e 346 849
e 346 905
e 347 497
e 347 597
e 347 357
e 347 824
e 347 480
e 348 842
e 348 623
e 349 598
e 349 875
e 351 685
e 351 784
e 351 452
e 351 360
e 351 588
e 351 359
e 351 704
e 352 856
e 352 919
e 352 365
e 353 710
e 353 856
e 354 502
e 354 406
e 354 485
e 354 442
e 355 791
e 355 929
e 355 440
e 356 858
e 356 605
e 356 462
e 359 868
e 360 644
e 360 679
e 360 661
e 360 777
e 360 555
e 360 830
e 360 841
e 365 411
e 365 521
e 365 639
e 365 492
e 365 707
e 366 796
e 366 942
e 367 905
e 367 401
e 367 949
e 367 693
e 369 652
e 374 767
e 374 677
e 374 694
e 375 573
e 375 697
e 377 436
e 377 460
e 378 829
e 378 586
e 378 906
e 378 805
e 378 973
e 379 560
e 379 579
e 380 954
e 380 813
e 380 976
e 381 382
e 381 764
e 381 510
e 382 769
e 382 929
e 384 798
e 384 710
e 384 994
e 384 681
e 384 919
e 385 924
e 385 396
e 388 746
e 388 463
e 389 875
e 389 442
e 389 792
e 390 582
e 390 477
e 390 799
e 390 949
e 390 826
e 391 799
e 392 797
e 392 824
e 392 871
e 393 885
e 393 867
e 394 557
e 394 940
e 394 774
e 395 466
e 395 539
e 396 633
e 396 621
e 398 444
e 398 643
e 398 757
e 398 641
e 398 714
e 398 811
e 399 565
e 399 436
e 400 912
e 400 748
e 400 966
e 401 490
e 401 403
e 401 701
e 401 902
e 401 969
e 402 878
e 402 577
e 402 601
e 403 901
e 404 681
e 404 528
e 404 657
e 404 751
e 404 607
e 405 630
e 405 568
e 406 642
e 406 588
e 408 448
e 408 512
e 408 411
e 408 616
e 409 686
e 409 741
e 409 912
e 410 512
e 410 656
e 410 540
e 411 714
e 412 529
e 413 931
e 413 823
e 416 696
e 416 862
e 417 553
e 417 628
e 417 676
e 421 717
e 421 670
e 421 862
e 421 833
e 422 591
e 422 665
e 422 677
e 423 890
e 423 1000
e 425 513
e 425 642
e 425 576
e 426 779
e 426 714
e 426 612
e 426 783
e 428 515
e 428 926
e 428 547
e 428 946
e 428 517
e 430 628
e 430 460
e 430 872
e 431 555
e 431 776
e 431 442
e 433 780
e 433 685
e 433 571
e 434 555
e 434 704
e 434 536
e 434 572
e 435 774
e 435 875
e 436 603
e 436 715
e 437 699
e 437 791
e 437 884
e 438 771
e 440 944
e 440 600
e 440 899
e 441 522
e 441 600
e 441 692
e 444 895
e 444 754
e 444 945
e 445 722
e 445 957
e 445 579
e 445 657
e 446 903
e 446 753
e 446 713
e 448 920
e 448 644
e 450 619
e 450 550
e 450 505
e 450 472
e 451 693
e 451 1000
e 451 611
e 451 950
e 453 925
e 457 714
e 457 602
e 457 669
e 457 518
e 458 737
e 458 598
e 459 595
e 460 712
e 460 809
e 460 559
e 462 814
e 462 565
e 462 897
e 463 501
e 463 796
e 463 841
e 463 867
e 464 722
e 464 953
e 464 535
e 464 468
e 466 819
e 466 579
e 466 616
e 466 867
e 466 522
e 466 592
e 467 731
e 467 993
e 467 969
e 467 644
e 467 548
e 467 890
e 468 748
e 468 791
e 468 993
e 468 805
e 468 826
e 469 584
e 469 843
e 470 764
e 470 529
e 471 821
e 471 856
e 472 573
e 472 585
e 474 834
e 474 799
e 475 853
e 475 957
e 475 814
e 475 564
e 476 651
e 476 623
e 477 681
e 479 758
e 479 626
e 479 777
e 480 516
e 481 880
e 481 719
e 481 991
e 482 978
e 483 768
e 483 605
e 483 960
e 483 738
e 483 987
e 485 902
e 485 817
e 485 603
e 486 743
e 486 812
e 486 648
e 487 812
e 487 589
e 489 735
e 489 677
e 490 909
e 490 627
e 492 878
e 492 722
e 492 683
e 493 936
e 493 537
e 493 638
e 493 552
e 493 806
e 493 905
e 494 633
e 494 957
e 494 839
e 495 571
e 497 694
e 497 858
e 497 916
e 497 960
e 498 528
e 498 512
e 498 686
e 499 962
e 499 535
e 499 859
e 500 929
e 500 686
e 501 672
e 502 696
e 504 843
e 504 574
e 505 793
e 508 981
e 508 619
e 508 684
e 508 985
e 508 711
e 509 813
e 509 711
e 509 788
e 510 698
e 510 757
e 511 619
e 511 734
e 512 534
e 512 648
e 513 718
e 514 695
e 514 989
e 514 566
e 514 991
e 515 749
e 515 603
e 515 906
e 516 966
e 516 542
e 517 916
e 518 993
e 518 534
e 519 765
e 519 843
e 520 718
e 520 736
e 521 589
e 526 693
e 526 735
e 528 826
e 528 798
e 528 684
e 531 670
e 531 847
e 531 954
e 531 708
e 532 737
e 532 796
e 532 994
e 534 599
e 534 596
e 534 720
e 535 552
e 535 872
e 535 715
e 536 720
e 536 811
e 536 992
e 537 878
e 539 868
e 539 703
e 542 720
e 542 824
e 542 571
e 542 792
e 542 658
e 544 981
e 544 939
e 544 690
e 545 663
e 545 933
e 546 795
e 546 825
e 546 757
e 548 845
e 548 798
e 548 944
e 548 872
e 550 561
e 550 855
e 552 685
e 552 710
e 552 672
e 552 883
e 552 588
e 553 777
e 553 709
e 553 905
e 555 956
e 555 646
e 555 592
e 556 771
e 556 906
e 556 648
e 557 603
e 558 601
e 558 646
e 559 950
e 559 624
e 559 760
e 559 656
e 559 733
e 559 828
e 560 787
e 560 923
e 561 673
e 561 667
e 561 567
e 561 952
e 561 751
e 561 839
e 562 597
e 562 569
e 562 972
e 562 580
e 564 972
e 565 669
e 565 842
e 566 976
e 566 699
e 566 862
e 566 816
e 566 676
e 567 905
e 567 588
e 567 787
e 568 602
e 568 741
e 568 719
e 569 708
e 569 939
e 569 945
e 570 661
e 570 884
e 570 907
e 570 707
e 570 949
e 571 757
e 571 688
e 571 635
e 571 898
e 571 852
e 571 715
e 572 605
e 574 812
e 577 883
e 577 912
e 577 892
e 579 899
e 580 733
e 581 856
e 581 761
e 581 902
e 582 738
e 582 624
e 582 927
e 582 868
e 584 774
e 586 858
e 587 694
e 588 834
e 591 607
e 592 705
e 593 797
e 593 969
e 596 669
e 597 893
e 598 871
e 598 671
e 598 618
e 600 893
e 601 812
e 601 946
e 602 936
e 602 818
e 603 817
e 603 734
e 603 676
e 604 834
e 605 622
e 607 688
e 609 737
e 609 976
e 609 846
e 610 651
e 611 644
e 612 631
e 612 629
e 614 768
e 614 987
e 616 840
e 616 880
e 616 757
e 617 727
e 617 942
e 617 624
e 618 776
e 618 890
e 618 959
e 619 638
e 619 769
e 619 852
e 619 748
e 620 959
e 621 653
e 621 675
e 622 898
e 623 770
e 623 868
e 625 693
e 625 645
e 626 842
e 626 790
e 626 703
e 626 969
e 626 855
e 627 825
e 627 872
e 628 927
e 629 796
e 631 809
e 633 812
e 635 849
e 636 910
e 636 822
e 636 837
e 638 776
e 639 982
e 639 951
e 639 998
e 639 774
e 641 710
e 641 742
e 642 926
e 642 879
e 643 994
e 643 935
e 644 912
e 644 871
e 645 777
e 646 964
e 646 904
e 646 749
e 650 873
e 650 784
e 651 814
e 651 925
e 653 657
e 653 841
e 653 957
e 653 867
e 654 684
e 654 902
e 654 697
e 656 777
e 656 724
e 656 868
e 656 658
e 657 942
e 657 943
e 659 898
e 659 909
e 659 819
e 659 902
e 661 999
e 665 790
e 666 940
e 666 739
e 668 793
e 668 708
e 668 973
e 669 904
e 669 782
e 669 796
e 669 727
e 670 886
e 671 776
e 671 924
e 672 793
e 672 897
e 672 936
e 672 966
e 672 833
e 672 744
e 672 905
e 673 703
e 675 746
e 676 901
e 677 766
e 679 948
e 679 989
e 680 972
e 680 991
e 681 742
e 681 705
e 681 760
e 683 738
e 683 890
e 684 945
e 685 804
e 686 753
e 686 868
e 688 747
e 690 992
e 692 763
e 692 774
e 693 816
e 694 977
e 694 897
e 695 999
e 696 842
e 697 899
e 697 912
e 698 741
e 698 783
e 699 709
e 699 892
e 699 939
e 699 927
e 701 956
e 701 906
e 701 783
e 703 737
e 703 846
e 704 880
e 704 820
e 705 741
e 706 841
e 707 840
e 708 830
e 708 815
e 709 901
e 709 934
e 709 977
e 709 880
e 710 813
e 711 834
e 711 960
e 712 978
e 713 735
e 713 933
e 714 924
e 715 920
e 715 936
e 716 821
e 716 914
e 717 982
e 717 872
e 718 733
e 719 828
e 719 924
e 720 876
e 720 867
e 724 780
e 724 795
e 727 867
e 729 808
e 729 827
e 731 948
e 731 933
e 731 993
e 732 750
e 732 754
e 733 874
e 733 939
e 734 924
e 734 939
e 734 813
e 738 798
e 740 852
e 741 943
e 741 788
e 744 791
e 744 751
e 744 871
e 746 894
e 746 905
e 747 966
e 748 899
e 750 847
e 750 872
e 751 782
e 754 880
e 755 841
e 755 761
e 755 890
e 758 840
e 758 812
e 758 886
e 760 981
e 761 898
e 764 769
e 765 883
e 765 867
e 765 985
e 766 872
e 766 849
e 767 987
e 770 899
e 774 867
e 779 853
e 782 916
e 782 989
e 783 897
e 783 975
e 784 885
e 784 845
e 784 998
e 785 825
e 787 994
e 787 925
e 787 943
e 788 992
e 788 853
e 788 954
e 789 859
e 790 934
e 791 998
e 792 924
e 793 818
e 793 948
e 796 952
e 796 948
e 797 841
e 797 948
e 797 977
e 797 892
e 801 827
e 802 909
e 802 897
e 804 817
e 805 849
e 806 815
e 807 869
e 808 934
e 812 816
e 813 920
e 815 820
e 816 904
e 818 873
e 819 991
e 821 880
e 821 954
e 823 837
e 823 913
e 825 829
e 825 870
e 827 856
e 827 832
e 828 923
e 829 890
e 829 852
e 832 847
e 837 939
e 837 945
e 837 885
e 841 877
e 842 952
e 842 914
e 859 899
e 861 890
e 868 934
e 870 931
e 874 953
e 874 934
e 877 940
e 881 895
e 883 977
e 885 886
e 885 966
e 885 959
e 891 903
e 892 964
e 894 998
e 894 923
e 897 1000
e 904 951
e 908 964
e 909 976
e 910 946
e 914 942
e 916 975
e 923 989
e 939 977
e 944 948
e 954 960
e 993 994
